proyfinal/src/viki/013/experimentInOfficeAgust.take6.output/fbea1017-4ddc-4d19-98dc-571bbf62c6f8.als.dat
{'cnf.clauses': '118081',
 'cnf.totvars': '69608',
 'conflict literals': '4',
 'conflicts': '4',
 'decisions': '551',
 'memused.mb': '14.87',
 'outcome': 'UNSAT',
 'propagations': '19904',
 'restarts': '1',
 'solver.msecs': 35,
 'task.msecs': 82}
