proyfinal/src/viki/013/experimentInOfficeAgust.take6.output/fbea1017-4ddc-4d19-98dc-571bbf62c6f8.als.out
Reading from standard input... Use '--help' for help.
============================[ Problem Statistics ]=============================
|                                                                             |
|  Number of variables:         69608                                         |
|  Number of clauses:          118081                                         |
|  Parse time:                   0.02 s                                       |
|                                                                             |
============================[ Search Statistics ]==============================
| Conflicts |          ORIGINAL         |          LEARNT          | Progress |
|           |    Vars  Clauses Literals |    Limit  Clauses Lit/Cl |          |
===============================================================================
===============================================================================
restarts              : 1
conflicts             : 4              (113 /sec)
decisions             : 551            (0.00 % random) (15619 /sec)
propagations          : 19904          (564220 /sec)
conflict literals     : 4              (0.00 % deleted)
Memory used           : 14.87 MB
CPU time              : 0.035277 s

UNSATISFIABLE
